(declare-fun a () Real)
(declare-fun b () Real)
(declare-fun c () Real)
(declare-fun x1 () Real)
(declare-fun x2 () Real)
(declare-fun y1 () Real)
(declare-fun y2 () Real)
(declare-fun z1 () Real)
(declare-fun z2 () Real)
(declare-fun opt () Real)
(assert (> x1 0))
(assert (> x2 0))
(assert (< (* z1 z1) (* x1 y1)))
(assert (< (* z2 z2) (* x2 y2)))
(assert (= a (- (* x1 y1) (* z1 z1))))
(assert (= b (- (* x2 y2) (* z2 z2))))
(assert (= c (- (* (+ x1 x2) (+ y1 y2)) (* (+ z1 z2) (+ z1 z2)))))
(assert (= (* a b opt)  (+ (* c b) (* c a))))
(minimize opt)
(check-sat)
(get-objectives)
